(declare-const a Real)
(declare-const b Real)
(declare-const c Real)
(declare-const d Real)
(assert (= (* a b c d) 1))
(assert (>= a 0))
(assert (>= b 0))
(assert (>= c 0))
(assert (>= d 0))
(assert (not (<= (+ d (* (/ 1 2) (pow (+ (/ 1 2) (* (/ 1 2) a)) 4)) (* (/ 1 2) (pow (+ 5 (* 5 (pow (+ b c) 2))) (/ 1 2))) (* -1 a (pow d 4)) (* -1 b (pow a 4)) (* -1 c (pow b 4)) (* -1 d (pow c 4))) 0)))
(check-sat)
(get-model)
(exit)